** Validierung: reiner Schub, 1x C3D8
** tau_xy=50, G=80769.230769, u_x(y=10)=6.1904761905e-03
*HEADING
Pure shear C3D8 cube
*NODE, NSET=Nall
1, 0., 0., 0.
2, 10., 0., 0.
3, 10., 10., 0.
4, 0., 10., 0.
5, 0., 0., 10.
6, 10., 0., 10.
7, 10., 10., 10.
8, 0., 10., 10.
*ELEMENT, TYPE=C3D8, ELSET=Eall
1, 1,2,3,4,5,6,7,8
*NSET, NSET=Nbot
1,2,5,6
*NSET, NSET=Ntop
3,4,7,8
*MATERIAL, NAME=Steel
*ELASTIC
210000., 0.3
*SOLID SECTION, ELSET=Eall, MATERIAL=Steel
*BOUNDARY
Nbot, 1, 3
Ntop, 2, 3
*STEP
*STATIC
*BOUNDARY
Ntop, 1, 1, 6.1904761905e-03
*NODE PRINT, NSET=Nall
U, RF
*EL PRINT, ELSET=Eall
S, E
*NODE FILE
U
*EL FILE
S, E
*END STEP
