** Validierung: hydrostatischer Druck p=100, sigma_ii=-100
** u_einwaerts=1.9047619048e-03
*HEADING
Hydrostatic pressure C3D8 cube
*NODE, NSET=Nall
1, 0., 0., 0.
2, 10., 0., 0.
3, 10., 10., 0.
4, 0., 10., 0.
5, 0., 0., 10.
6, 10., 0., 10.
7, 10., 10., 10.
8, 0., 10., 10.
*ELEMENT, TYPE=C3D8, ELSET=Eall
1, 1,2,3,4,5,6,7,8
*MATERIAL, NAME=Steel
*ELASTIC
210000., 0.3
*SOLID SECTION, ELSET=Eall, MATERIAL=Steel
*BOUNDARY
1, 1, 3
2, 2
2, 3
4, 1
4, 3
5, 1
5, 2
*STEP
*STATIC
*DLOAD
1, P1, 100.
1, P2, 100.
1, P3, 100.
1, P4, 100.
1, P5, 100.
1, P6, 100.
*NODE PRINT, NSET=Nall
U
*EL PRINT, ELSET=Eall
S, E
*NODE FILE
U
*EL FILE
S, E
*END STEP
