** Kragtraeger B32 L=100, 10x10, F=100
** u_tip Euler=0.1904761905  Timoshenko=0.1919619048  sigma=60
*HEADING
Cantilever B32
*NODE, NSET=Nall
1, 0., 0., 0.
2, 0., 0., 50.
3, 0., 0., 100.
*ELEMENT, TYPE=B32, ELSET=Eall
1, 1, 2, 3
*BOUNDARY
1, 1, 6
*MATERIAL, NAME=Steel
*ELASTIC
210000., 0.3
*BEAM SECTION, ELSET=Eall, MATERIAL=Steel, SECTION=RECT
10., 10.
1., 0., 0.
*STEP
*STATIC
*CLOAD
3, 1, 100.
*NODE PRINT, NSET=Nall
U
*EL PRINT, ELSET=Eall
S
*NODE FILE, OUTPUT=2D
U
*EL FILE, SECTION FORCES
S
*END STEP
