** Einfeldtraeger L=200 F=100 Mitte, u=FL^3/48EI=0.095238 (Timoshenko +Schub)
*HEADING
Simply supported beam B32
*NODE, NSET=Nall
1, 0., 0., 0.
2, 0., 0., 50.
3, 0., 0., 100.
4, 0., 0., 150.
5, 0., 0., 200.
*ELEMENT, TYPE=B32, ELSET=Eall
1, 1, 2, 3
2, 3, 4, 5
*BOUNDARY
1, 1, 3
1, 4
1, 6
5, 1, 2
5, 4
5, 6
*MATERIAL, NAME=Steel
*ELASTIC
210000., 0.3
*BEAM SECTION, ELSET=Eall, MATERIAL=Steel, SECTION=RECT
10., 10.
1., 0., 0.
*STEP
*STATIC
*CLOAD
3, 1, 100.
*NODE PRINT, NSET=Nall
U
*EL PRINT, ELSET=Eall
S
*NODE FILE, OUTPUT=2D
U
*EL FILE, SECTION FORCES
S
*END STEP
