** Kragarm C3D20R, L=100, Querschnitt 10x10, F=100 in x
** Netz 2x2x8, Einspannung z=0, konstante Querkraft am freien Ende
** u_tip Euler=0.1904761905  Timoshenko=0.1919619048
** Achsknoten am freien Ende liegt knapp unter Euler (3D-Einspannung), innerhalb 1 %
*HEADING
Cantilever C3D20R
*NODE, NSET=Nall
1, -5, -5, 0
2, -2.5, -5, 0
3, 0, -5, 0
4, 2.5, -5, 0
5, 5, -5, 0
6, -5, -2.5, 0
8, 0, -2.5, 0
10, 5, -2.5, 0
11, -5, 0, 0
12, -2.5, 0, 0
13, 0, 0, 0
14, 2.5, 0, 0
15, 5, 0, 0
16, -5, 2.5, 0
18, 0, 2.5, 0
20, 5, 2.5, 0
21, -5, 5, 0
22, -2.5, 5, 0
23, 0, 5, 0
24, 2.5, 5, 0
25, 5, 5, 0
26, -5, -5, 6.25
28, 0, -5, 6.25
30, 5, -5, 6.25
36, -5, 0, 6.25
38, 0, 0, 6.25
40, 5, 0, 6.25
46, -5, 5, 6.25
48, 0, 5, 6.25
50, 5, 5, 6.25
51, -5, -5, 12.5
52, -2.5, -5, 12.5
53, 0, -5, 12.5
54, 2.5, -5, 12.5
55, 5, -5, 12.5
56, -5, -2.5, 12.5
58, 0, -2.5, 12.5
60, 5, -2.5, 12.5
61, -5, 0, 12.5
62, -2.5, 0, 12.5
63, 0, 0, 12.5
64, 2.5, 0, 12.5
65, 5, 0, 12.5
66, -5, 2.5, 12.5
68, 0, 2.5, 12.5
70, 5, 2.5, 12.5
71, -5, 5, 12.5
72, -2.5, 5, 12.5
73, 0, 5, 12.5
74, 2.5, 5, 12.5
75, 5, 5, 12.5
76, -5, -5, 18.75
78, 0, -5, 18.75
80, 5, -5, 18.75
86, -5, 0, 18.75
88, 0, 0, 18.75
90, 5, 0, 18.75
96, -5, 5, 18.75
98, 0, 5, 18.75
100, 5, 5, 18.75
101, -5, -5, 25
102, -2.5, -5, 25
103, 0, -5, 25
104, 2.5, -5, 25
105, 5, -5, 25
106, -5, -2.5, 25
108, 0, -2.5, 25
110, 5, -2.5, 25
111, -5, 0, 25
112, -2.5, 0, 25
113, 0, 0, 25
114, 2.5, 0, 25
115, 5, 0, 25
116, -5, 2.5, 25
118, 0, 2.5, 25
120, 5, 2.5, 25
121, -5, 5, 25
122, -2.5, 5, 25
123, 0, 5, 25
124, 2.5, 5, 25
125, 5, 5, 25
126, -5, -5, 31.25
128, 0, -5, 31.25
130, 5, -5, 31.25
136, -5, 0, 31.25
138, 0, 0, 31.25
140, 5, 0, 31.25
146, -5, 5, 31.25
148, 0, 5, 31.25
150, 5, 5, 31.25
151, -5, -5, 37.5
152, -2.5, -5, 37.5
153, 0, -5, 37.5
154, 2.5, -5, 37.5
155, 5, -5, 37.5
156, -5, -2.5, 37.5
158, 0, -2.5, 37.5
160, 5, -2.5, 37.5
161, -5, 0, 37.5
162, -2.5, 0, 37.5
163, 0, 0, 37.5
164, 2.5, 0, 37.5
165, 5, 0, 37.5
166, -5, 2.5, 37.5
168, 0, 2.5, 37.5
170, 5, 2.5, 37.5
171, -5, 5, 37.5
172, -2.5, 5, 37.5
173, 0, 5, 37.5
174, 2.5, 5, 37.5
175, 5, 5, 37.5
176, -5, -5, 43.75
178, 0, -5, 43.75
180, 5, -5, 43.75
186, -5, 0, 43.75
188, 0, 0, 43.75
190, 5, 0, 43.75
196, -5, 5, 43.75
198, 0, 5, 43.75
200, 5, 5, 43.75
201, -5, -5, 50
202, -2.5, -5, 50
203, 0, -5, 50
204, 2.5, -5, 50
205, 5, -5, 50
206, -5, -2.5, 50
208, 0, -2.5, 50
210, 5, -2.5, 50
211, -5, 0, 50
212, -2.5, 0, 50
213, 0, 0, 50
214, 2.5, 0, 50
215, 5, 0, 50
216, -5, 2.5, 50
218, 0, 2.5, 50
220, 5, 2.5, 50
221, -5, 5, 50
222, -2.5, 5, 50
223, 0, 5, 50
224, 2.5, 5, 50
225, 5, 5, 50
226, -5, -5, 56.25
228, 0, -5, 56.25
230, 5, -5, 56.25
236, -5, 0, 56.25
238, 0, 0, 56.25
240, 5, 0, 56.25
246, -5, 5, 56.25
248, 0, 5, 56.25
250, 5, 5, 56.25
251, -5, -5, 62.5
252, -2.5, -5, 62.5
253, 0, -5, 62.5
254, 2.5, -5, 62.5
255, 5, -5, 62.5
256, -5, -2.5, 62.5
258, 0, -2.5, 62.5
260, 5, -2.5, 62.5
261, -5, 0, 62.5
262, -2.5, 0, 62.5
263, 0, 0, 62.5
264, 2.5, 0, 62.5
265, 5, 0, 62.5
266, -5, 2.5, 62.5
268, 0, 2.5, 62.5
270, 5, 2.5, 62.5
271, -5, 5, 62.5
272, -2.5, 5, 62.5
273, 0, 5, 62.5
274, 2.5, 5, 62.5
275, 5, 5, 62.5
276, -5, -5, 68.75
278, 0, -5, 68.75
280, 5, -5, 68.75
286, -5, 0, 68.75
288, 0, 0, 68.75
290, 5, 0, 68.75
296, -5, 5, 68.75
298, 0, 5, 68.75
300, 5, 5, 68.75
301, -5, -5, 75
302, -2.5, -5, 75
303, 0, -5, 75
304, 2.5, -5, 75
305, 5, -5, 75
306, -5, -2.5, 75
308, 0, -2.5, 75
310, 5, -2.5, 75
311, -5, 0, 75
312, -2.5, 0, 75
313, 0, 0, 75
314, 2.5, 0, 75
315, 5, 0, 75
316, -5, 2.5, 75
318, 0, 2.5, 75
320, 5, 2.5, 75
321, -5, 5, 75
322, -2.5, 5, 75
323, 0, 5, 75
324, 2.5, 5, 75
325, 5, 5, 75
326, -5, -5, 81.25
328, 0, -5, 81.25
330, 5, -5, 81.25
336, -5, 0, 81.25
338, 0, 0, 81.25
340, 5, 0, 81.25
346, -5, 5, 81.25
348, 0, 5, 81.25
350, 5, 5, 81.25
351, -5, -5, 87.5
352, -2.5, -5, 87.5
353, 0, -5, 87.5
354, 2.5, -5, 87.5
355, 5, -5, 87.5
356, -5, -2.5, 87.5
358, 0, -2.5, 87.5
360, 5, -2.5, 87.5
361, -5, 0, 87.5
362, -2.5, 0, 87.5
363, 0, 0, 87.5
364, 2.5, 0, 87.5
365, 5, 0, 87.5
366, -5, 2.5, 87.5
368, 0, 2.5, 87.5
370, 5, 2.5, 87.5
371, -5, 5, 87.5
372, -2.5, 5, 87.5
373, 0, 5, 87.5
374, 2.5, 5, 87.5
375, 5, 5, 87.5
376, -5, -5, 93.75
378, 0, -5, 93.75
380, 5, -5, 93.75
386, -5, 0, 93.75
388, 0, 0, 93.75
390, 5, 0, 93.75
396, -5, 5, 93.75
398, 0, 5, 93.75
400, 5, 5, 93.75
401, -5, -5, 100
402, -2.5, -5, 100
403, 0, -5, 100
404, 2.5, -5, 100
405, 5, -5, 100
406, -5, -2.5, 100
408, 0, -2.5, 100
410, 5, -2.5, 100
411, -5, 0, 100
412, -2.5, 0, 100
413, 0, 0, 100
414, 2.5, 0, 100
415, 5, 0, 100
416, -5, 2.5, 100
418, 0, 2.5, 100
420, 5, 2.5, 100
421, -5, 5, 100
422, -2.5, 5, 100
423, 0, 5, 100
424, 2.5, 5, 100
425, 5, 5, 100
*ELEMENT, TYPE=C3D20R, ELSET=Eall
1, 1, 3, 13, 11, 51, 53, 63, 61, 2, 8, 12, 6, 52, 58, 62, 56, 26, 28, 38, 36
2, 3, 5, 15, 13, 53, 55, 65, 63, 4, 10, 14, 8, 54, 60, 64, 58, 28, 30, 40, 38
3, 11, 13, 23, 21, 61, 63, 73, 71, 12, 18, 22, 16, 62, 68, 72, 66, 36, 38, 48, 46
4, 13, 15, 25, 23, 63, 65, 75, 73, 14, 20, 24, 18, 64, 70, 74, 68, 38, 40, 50, 48
5, 51, 53, 63, 61, 101, 103, 113, 111, 52, 58, 62, 56, 102, 108, 112, 106, 76, 78, 88, 86
6, 53, 55, 65, 63, 103, 105, 115, 113, 54, 60, 64, 58, 104, 110, 114, 108, 78, 80, 90, 88
7, 61, 63, 73, 71, 111, 113, 123, 121, 62, 68, 72, 66, 112, 118, 122, 116, 86, 88, 98, 96
8, 63, 65, 75, 73, 113, 115, 125, 123, 64, 70, 74, 68, 114, 120, 124, 118, 88, 90, 100, 98
9, 101, 103, 113, 111, 151, 153, 163, 161, 102, 108, 112, 106, 152, 158, 162, 156, 126, 128, 138, 136
10, 103, 105, 115, 113, 153, 155, 165, 163, 104, 110, 114, 108, 154, 160, 164, 158, 128, 130, 140, 138
11, 111, 113, 123, 121, 161, 163, 173, 171, 112, 118, 122, 116, 162, 168, 172, 166, 136, 138, 148, 146
12, 113, 115, 125, 123, 163, 165, 175, 173, 114, 120, 124, 118, 164, 170, 174, 168, 138, 140, 150, 148
13, 151, 153, 163, 161, 201, 203, 213, 211, 152, 158, 162, 156, 202, 208, 212, 206, 176, 178, 188, 186
14, 153, 155, 165, 163, 203, 205, 215, 213, 154, 160, 164, 158, 204, 210, 214, 208, 178, 180, 190, 188
15, 161, 163, 173, 171, 211, 213, 223, 221, 162, 168, 172, 166, 212, 218, 222, 216, 186, 188, 198, 196
16, 163, 165, 175, 173, 213, 215, 225, 223, 164, 170, 174, 168, 214, 220, 224, 218, 188, 190, 200, 198
17, 201, 203, 213, 211, 251, 253, 263, 261, 202, 208, 212, 206, 252, 258, 262, 256, 226, 228, 238, 236
18, 203, 205, 215, 213, 253, 255, 265, 263, 204, 210, 214, 208, 254, 260, 264, 258, 228, 230, 240, 238
19, 211, 213, 223, 221, 261, 263, 273, 271, 212, 218, 222, 216, 262, 268, 272, 266, 236, 238, 248, 246
20, 213, 215, 225, 223, 263, 265, 275, 273, 214, 220, 224, 218, 264, 270, 274, 268, 238, 240, 250, 248
21, 251, 253, 263, 261, 301, 303, 313, 311, 252, 258, 262, 256, 302, 308, 312, 306, 276, 278, 288, 286
22, 253, 255, 265, 263, 303, 305, 315, 313, 254, 260, 264, 258, 304, 310, 314, 308, 278, 280, 290, 288
23, 261, 263, 273, 271, 311, 313, 323, 321, 262, 268, 272, 266, 312, 318, 322, 316, 286, 288, 298, 296
24, 263, 265, 275, 273, 313, 315, 325, 323, 264, 270, 274, 268, 314, 320, 324, 318, 288, 290, 300, 298
25, 301, 303, 313, 311, 351, 353, 363, 361, 302, 308, 312, 306, 352, 358, 362, 356, 326, 328, 338, 336
26, 303, 305, 315, 313, 353, 355, 365, 363, 304, 310, 314, 308, 354, 360, 364, 358, 328, 330, 340, 338
27, 311, 313, 323, 321, 361, 363, 373, 371, 312, 318, 322, 316, 362, 368, 372, 366, 336, 338, 348, 346
28, 313, 315, 325, 323, 363, 365, 375, 373, 314, 320, 324, 318, 364, 370, 374, 368, 338, 340, 350, 348
29, 351, 353, 363, 361, 401, 403, 413, 411, 352, 358, 362, 356, 402, 408, 412, 406, 376, 378, 388, 386
30, 353, 355, 365, 363, 403, 405, 415, 413, 354, 360, 364, 358, 404, 410, 414, 408, 378, 380, 390, 388
31, 361, 363, 373, 371, 411, 413, 423, 421, 362, 368, 372, 366, 412, 418, 422, 416, 386, 388, 398, 396
32, 363, 365, 375, 373, 413, 415, 425, 423, 364, 370, 374, 368, 414, 420, 424, 418, 388, 390, 400, 398
*NSET, NSET=Nfix
1, 2, 3, 4, 5, 6, 8, 10, 11, 12, 13, 14, 15, 16, 18, 20
21, 22, 23, 24, 25
*MATERIAL, NAME=Steel
*ELASTIC
210000., 0.3
*SOLID SECTION, ELSET=Eall, MATERIAL=Steel
*BOUNDARY
Nfix, 1, 3
*STEP
*STATIC
*CLOAD
401, 1, -2.0833333
402, 1, 8.3333333
403, 1, -4.1666667
404, 1, 8.3333333
405, 1, -2.0833333
406, 1, 8.3333333
408, 1, 16.666667
410, 1, 8.3333333
411, 1, -4.1666667
412, 1, 16.666667
413, 1, -8.3333333
414, 1, 16.666667
415, 1, -4.1666667
416, 1, 8.3333333
418, 1, 16.666667
420, 1, 8.3333333
421, 1, -2.0833333
422, 1, 8.3333333
423, 1, -4.1666667
424, 1, 8.3333333
425, 1, -2.0833333
*NODE PRINT, NSET=Nall
U
*EL PRINT, ELSET=Eall
S
*NODE FILE
U
*EL FILE
S
*END STEP
